objective value:                                   26
lambda[1,30]*                                       1 	(obj:26)
lambda[0,36]*                                       9 	(obj:0)
lambda[0,37]*                                       1 	(obj:0)
lambda[1,49]*                                       6 	(obj:0)
lambda[1,50]*                                       2 	(obj:0)
lambda[1,53]*                                       1 	(obj:0)
